10
0 41 19 57 38 44 30 50 15 100 
28 0 25 42 83 68 43 46 55 17 
7 68 0 32 71 23 1 75 63 4 
86 64 69 0 68 86 5 33 73 50 
68 53 19 36 0 8 54 56 56 98 
70 39 67 21 41 0 3 100 71 15 
78 37 30 80 94 66 0 75 85 34 
24 76 26 12 100 60 4 0 2 77 
27 13 98 63 71 30 90 22 0 10 
65 44 71 92 2 74 37 36 7 0 
